
Gurobi 7.5.2 (win64, Python) logging started 06/14/18 16:28:48

Academic license - for non-commercial use only
Optimize a model with 72748 rows, 282 columns and 145496 nonzeros
Variable types: 0 continuous, 282 integer (282 binary)
Coefficient statistics:
  Matrix range     [1e+00, 1e+00]
  Objective range  [1e+00, 1e+00]
  Bounds range     [1e+00, 1e+00]
  RHS range        [1e+00, 1e+00]
Found heuristic solution: objective 2.0000000
Presolve removed 72116 rows and 0 columns
Presolve time: 0.86s
Presolved: 632 rows, 282 columns, 30517 nonzeros
Variable types: 0 continuous, 282 integer (282 binary)

Root relaxation: objective 8.451102e+00, 334 iterations, 0.03 seconds

    Nodes    |    Current Node    |     Objective Bounds      |     Work
 Expl Unexpl |  Obj  Depth IntInf | Incumbent    BestBd   Gap | It/Node Time

     0     0    8.45110    0   73    2.00000    8.45110   323%     -    0s
H    0     0                       3.0000000    8.45110   182%     -    1s
     0     0    5.79877    0   58    3.00000    5.79877  93.3%     -    1s
     0     0    5.05197    0   41    3.00000    5.05197  68.4%     -    1s
     0     0    4.83413    0   39    3.00000    4.83413  61.1%     -    1s
     0     0    4.72093    0   33    3.00000    4.72093  57.4%     -    1s
     0     0    4.70057    0   38    3.00000    4.70057  56.7%     -    1s
     0     0    4.65854    0   34    3.00000    4.65854  55.3%     -    1s
     0     0    4.64394    0   41    3.00000    4.64394  54.8%     -    1s
     0     0    4.63178    0   40    3.00000    4.63178  54.4%     -    1s
     0     0    4.61974    0   38    3.00000    4.61974  54.0%     -    1s
     0     0    4.61970    0   39    3.00000    4.61970  54.0%     -    1s
     0     0    4.03911    0   32    3.00000    4.03911  34.6%     -    1s
     0     0     cutoff    0         3.00000    3.00000  0.00%     -    1s

Cutting planes:
  Clique: 45

Explored 1 nodes (1343 simplex iterations) in 1.51 seconds
Thread count was 4 (of 4 available processors)

Solution count 2: 3 2 

Optimal solution found (tolerance 1.00e-04)
Best objective 3.000000000000e+00, best bound 3.000000000000e+00, gap 0.0000%
Optimize a model with 680 rows, 36 columns and 1360 nonzeros
Variable types: 0 continuous, 36 integer (36 binary)
Coefficient statistics:
  Matrix range     [1e+00, 1e+00]
  Objective range  [1e+00, 1e+00]
  Bounds range     [1e+00, 1e+00]
  RHS range        [1e+00, 1e+00]
Found heuristic solution: objective 6.0000000
Presolve removed 601 rows and 0 columns
Presolve time: 0.00s
Presolved: 79 rows, 36 columns, 395 nonzeros
Variable types: 0 continuous, 36 integer (36 binary)

Root relaxation: objective 7.000000e+00, 70 iterations, 0.00 seconds

    Nodes    |    Current Node    |     Objective Bounds      |     Work
 Expl Unexpl |  Obj  Depth IntInf | Incumbent    BestBd   Gap | It/Node Time

     0     0    7.00000    0   36    6.00000    7.00000  16.7%     -    0s

Explored 0 nodes (76 simplex iterations) in 0.02 seconds
Thread count was 4 (of 4 available processors)

Solution count 1: 6 

Optimal solution found (tolerance 1.00e-04)
Best objective 6.000000000000e+00, best bound 6.000000000000e+00, gap 0.0000%
Optimize a model with 1690 rows, 47 columns and 3380 nonzeros
Variable types: 0 continuous, 47 integer (47 binary)
Coefficient statistics:
  Matrix range     [1e+00, 1e+00]
  Objective range  [1e+00, 1e+00]
  Bounds range     [1e+00, 1e+00]
  RHS range        [1e+00, 1e+00]
Found heuristic solution: objective 2.0000000
Presolve removed 1638 rows and 0 columns
Presolve time: 0.01s
Presolved: 52 rows, 47 columns, 790 nonzeros
Variable types: 0 continuous, 47 integer (47 binary)

Root relaxation: objective 3.923077e+00, 39 iterations, 0.00 seconds

    Nodes    |    Current Node    |     Objective Bounds      |     Work
 Expl Unexpl |  Obj  Depth IntInf | Incumbent    BestBd   Gap | It/Node Time

     0     0    3.92308    0   24    2.00000    3.92308  96.2%     -    0s
     0     0    3.76050    0   36    2.00000    3.76050  88.0%     -    0s
     0     0    3.70886    0   31    2.00000    3.70886  85.4%     -    0s
     0     0    3.62852    0   30    2.00000    3.62852  81.4%     -    0s
     0     0    3.61541    0   30    2.00000    3.61541  80.8%     -    0s
     0     0    3.60514    0   28    2.00000    3.60514  80.3%     -    0s
     0     0    3.57945    0   31    2.00000    3.57945  79.0%     -    0s
     0     0    3.57243    0   28    2.00000    3.57243  78.6%     -    0s
     0     0    3.56771    0   33    2.00000    3.56771  78.4%     -    0s
     0     0    3.56362    0   34    2.00000    3.56362  78.2%     -    0s
     0     0    3.56196    0   35    2.00000    3.56196  78.1%     -    0s
     0     0    3.52136    0   28    2.00000    3.52136  76.1%     -    0s
     0     0    3.51843    0   30    2.00000    3.51843  75.9%     -    0s
     0     0    3.51431    0   32    2.00000    3.51431  75.7%     -    0s
     0     0    3.51300    0   34    2.00000    3.51300  75.6%     -    0s
     0     0    3.51283    0   33    2.00000    3.51283  75.6%     -    0s
     0     0    3.49806    0   32    2.00000    3.49806  74.9%     -    0s
     0     0    3.49356    0   34    2.00000    3.49356  74.7%     -    0s
     0     0    3.49160    0   33    2.00000    3.49160  74.6%     -    0s
     0     0    3.48773    0   34    2.00000    3.48773  74.4%     -    0s
     0     0    3.46754    0   29    2.00000    3.46754  73.4%     -    0s
     0     0    3.45937    0   31    2.00000    3.45937  73.0%     -    0s
     0     0    3.45852    0   30    2.00000    3.45852  72.9%     -    0s
     0     0    3.45651    0   29    2.00000    3.45651  72.8%     -    0s
     0     0    3.45640    0   29    2.00000    3.45640  72.8%     -    0s
     0     0    3.42089    0   24    2.00000    3.42089  71.0%     -    0s
     0     0    3.41405    0   25    2.00000    3.41405  70.7%     -    0s
     0     0    3.40970    0   27    2.00000    3.40970  70.5%     -    0s
     0     0    3.40836    0   25    2.00000    3.40836  70.4%     -    0s
     0     0    3.40794    0   25    2.00000    3.40794  70.4%     -    0s
     0     0    3.38826    0   28    2.00000    3.38826  69.4%     -    0s
     0     0    3.38730    0   27    2.00000    3.38730  69.4%     -    0s
     0     0    3.38561    0   29    2.00000    3.38561  69.3%     -    0s
     0     0    3.38194    0   31    2.00000    3.38194  69.1%     -    0s
     0     0    3.38173    0   31    2.00000    3.38173  69.1%     -    0s
     0     0    3.38075    0   31    2.00000    3.38075  69.0%     -    0s
     0     0    3.38038    0   31    2.00000    3.38038  69.0%     -    0s
     0     0    3.37988    0   31    2.00000    3.37988  69.0%     -    0s
     0     2    3.37988    0   31    2.00000    3.37988  69.0%     -    0s

Cutting planes:
  Clique: 19
  MIR: 5
  Mod-K: 1

Explored 25 nodes (668 simplex iterations) in 0.17 seconds
Thread count was 4 (of 4 available processors)

Solution count 1: 2 

Optimal solution found (tolerance 1.00e-04)
Best objective 2.000000000000e+00, best bound 2.000000000000e+00, gap 0.0000%
Optimize a model with 12030 rows, 128 columns and 24060 nonzeros
Variable types: 0 continuous, 128 integer (128 binary)
Coefficient statistics:
  Matrix range     [1e+00, 1e+00]
  Objective range  [1e+00, 1e+00]
  Bounds range     [1e+00, 1e+00]
  RHS range        [1e+00, 1e+00]
Found heuristic solution: objective 11.0000000
Presolve removed 10875 rows and 5 columns
Presolve time: 0.14s
Presolved: 1155 rows, 123 columns, 8170 nonzeros
Variable types: 0 continuous, 123 integer (123 binary)
Presolved: 123 rows, 1278 columns, 8293 nonzeros

Presolve removed 123 rows and 1278 columns

Root relaxation: objective 3.100000e+01, 251 iterations, 0.01 seconds

    Nodes    |    Current Node    |     Objective Bounds      |     Work
 Expl Unexpl |  Obj  Depth IntInf | Incumbent    BestBd   Gap | It/Node Time

*    0     0               0      31.0000000   31.00000  0.00%     -    0s

Explored 0 nodes (251 simplex iterations) in 0.17 seconds
Thread count was 4 (of 4 available processors)

Solution count 2: 31 11 

Optimal solution found (tolerance 1.00e-04)
Best objective 3.100000000000e+01, best bound 3.100000000000e+01, gap 0.0000%
